
  22   10
  10   10   10   10   10   10   10   10   10   10

   0   0   0   0   0   0   0   0   0   0   0   1 2 
  10  10   0   0   0   0   0   0   0   0   0   2 15 3 
   9   0  10   0   0   0   0   0   0   0   0   1 4 
  10   0   0  10   0   0   0   0   0   0   0   1 5 
   6  10   0   0   0   0   0   0   0   0   0   1 6 
   4   0   0   0   0  10   0   0   0   0   0   1 7 
   2   0   0   0   0  10   0   0   0   0   0   2 10 8 
   2   0  10   0   0   0   0   0   0   0   0   1 9 
   1   0   0   0   0   0   0   0  10   0   0   1 11 
  10   0   0   0   0   0   0   0  10   0   0   1 11 
   5   0   0   0   0  10   0   0   0   0   0   1 12 
   4   0   0   0   0   0   0   0   0  10   0   1 13 
   6   0   0   0   0  10   0   0   0   0   0   1 14 
   9   0   0   0   0  10   0   0   0   0   0   1 16 
   9   0   0   0   0  10   0   0   0   0   0   1 16 
   9   0   0   0  10   0   0   0   0   0   0   1 17 
   4   0   0   0  10   0   0   0   0   0   0   1 18 
   4   0   0   0   0   0   0   0  10   0   0   1 19 
   8   0   0   0   0   0   0   0   0  10   0   1 20 
   9   0   0  10   0   0   0   0   0   0   0   1 21 
   2   0   0   0  10   0   0   0   0   0   0   1 22
   0   0   0   0   0   0   0   0   0   0   0   0 
